Version identifier: 22.1.1.0 | 2022-11-28 | 9160aff4d
CPXPARAM_ClockType                               1
CPXPARAM_Read_DataCheck                          1
CPXPARAM_Threads                                 1
CPXPARAM_TimeLimit                               7200
CPXPARAM_MIP_Tolerances_AbsMIPGap                0
CPXPARAM_MIP_Tolerances_MIPGap                   0
CPXPARAM_MIP_Tolerances_Integrality              0
Tried aggregator 2 times.
MIP Presolve eliminated 141304 rows and 0 columns.
MIP Presolve modified 67988 coefficients.
Aggregator did 3009 substitutions.
Reduced MIP has 66282 rows, 11033 columns, and 342836 nonzeros.
Reduced MIP has 11033 binaries, 0 generals, 0 SOSs, and 0 indicators.
Presolve time = 1.90 sec. (1101.89 ticks)
Probing time = 0.02 sec. (4.44 ticks)
Tried aggregator 1 time.
Detecting symmetries...
MIP Presolve eliminated 270 rows and 0 columns.
Reduced MIP has 66012 rows, 11033 columns, and 338246 nonzeros.
Reduced MIP has 11033 binaries, 0 generals, 0 SOSs, and 0 indicators.
Presolve time = 0.87 sec. (513.14 ticks)
Probing time = 0.02 sec. (4.51 ticks)
Clique table members: 62978.
MIP emphasis: balance optimality and feasibility.
MIP search method: dynamic search.
Parallel mode: none, using 1 thread.
Root relaxation solution time = 171.25 sec. (39009.00 ticks)

        Nodes                                         Cuts/
   Node  Left     Objective  IInf  Best Integer    Best Bound    ItCnt     Gap

      0     0     1319.1333  2531                   1319.1333   102700         

Clique cuts applied:  226
Zero-half cuts applied:  20
Gomory fractional cuts applied:  2

Root node processing (before b&c):
  Real time             = 7200.12 sec. (3646472.46 ticks)
Sequential b&c:
  Real time             =    0.00 sec. (0.00 ticks)
                          ------------
Total (root+branch&cut) = 7200.12 sec. (3646472.46 ticks)
Solution is infeasible.

---------------------
@@@ MIP_time_limit_infeasible
Traceback (most recent call last):
  File "/scratch/scherif/DiverseSAT-journal_sup/DiverseSAT_Supplementary_Experiments/experiment-1/cplex/jobs/../solvers/CPLEX-BIN.py", line 132, in <module>
    print(f">>> Benchmark {os.path.basename(cnf_file)} k {k} OPT {int(prob.solution.get_objective_value())}"
  File "/users/scherif/.local/lib/python3.9/site-packages/cplex/_internal/_subinterfaces.py", line 7211, in get_objective_value
    return CPX_PROC.getobjval(self._env._e, self._cplex._lp)
  File "/users/scherif/.local/lib/python3.9/site-packages/cplex/_internal/_procedural.py", line 2055, in getobjval
    check_status(env, status)
  File "/users/scherif/.local/lib/python3.9/site-packages/cplex/_internal/_procedural.py", line 249, in __call__
    raise CplexSolverError(error_string, env, status)
cplex.exceptions.errors.CplexSolverError: CPLEX Error  1217: No solution exists.
